NAME : Problem-4-10-A
TYPE : HVRP
DIMENSION : 11
EDGE_WEIGHT_TYPE : EUC_2D

NODE_COORD_SECTION
1 30 40
2 37 52
3 49 49
4 52 64
7 21 47
8 17 63
10 52 33
12 42 41
15 12 42
21 57 58

DEMAND_SECTION
1 0
2 7
3 30
4 16
7 15
8 19
10 11
12 19
15 21
21 28

VEHICLE_TYPES
# id capacity fixed_cost var_cost
A 60  1000 1 
B 80  1500 1 
C 150 3000 1 
END
